20,1,1,2,3,2,7,2,17,2,17,3,14,3,2,1,9,1,8,3,18,3,2,2,20,4,7,5,11,3,16,4,6,4,9,4,12,5,9,5;17,1,13,1,6,1,5,2,11,1,1,3,5,3,18,2,19,2,6,3,9,2,15,4,18,4,4,4,11,4,16,5,10,4,2,5,10,5,4,5;14,1,5,1,15,1,13,2,4,1,3,3,20,2,20,3,14,4,12,2,4,3,1,4,3,5,5,5,10,2,8,4,19,5,1,5;3,1,12,1,7,1,16,1,8,2,16,2,11,2,13,3,16,3,6,2,15,3,19,3,17,5,19,4,9,3,14,5,12,4,2,4,8,5,13,5;1,1,8,1,14,2,18,1,19,1,15,2,7,3,4,2,17,4,5,4,10,1,7,4,3,4,13,4,2,3,15,5,12,3,10,3,11,5,6,5,20,5,18,5;
